NAME : eil51
COMMENT : 51-city problem (Christofides/Eilon)
TYPE : TSP
DIMENSION : 5
EDGE_WEIGHT_TYPE : EUC_2D
NODE_COORD_SECTION
0   58.235916348614666   168.71950487822357
1   124.57628926487433   72.638626998568
2   167.3353607979492   72.65309479744451
3   172.17485916597383   116.42481425513054
4   178.7733334507738   45.45980340855999
EOF